NAME          
ROWS
 N  OBJ
 L  c2
 L  c3
 L  c4
 L  c5
 L  c6
 L  c7
 L  c8
 L  c9
 L  c10
 L  c11
 G  c1
COLUMNS
    ss[1]     c1        1
    ss[1]     OBJ       1000
    s[1]      c2        1
    s[1]      OBJ       -1000
    s[2]      c3        1
    s[2]      OBJ       -1000
    s[3]      c4        1
    s[3]      OBJ       -1000
    s[4]      c5        1
    s[4]      OBJ       -1000
    s[5]      c6        1
    s[5]      OBJ       -1000
    s[6]      c7        1
    s[6]      OBJ       -1000
    s[7]      c8        1
    s[7]      OBJ       -1000
    s[8]      c9        1
    s[8]      OBJ       -1000
    s[9]      c10       1
    s[9]      OBJ       -1000
    s[10]     c11       1
    s[10]     OBJ       -1000
    MARKER    'MARKER'                 'INTORG'
    x[1]      c2        473
    x[1]      c3        386
    x[1]      c4        386
    x[1]      c5        674
    x[1]      c6        654
    x[1]      c7        508
    x[1]      c8        252
    x[1]      c9        75
    x[1]      c10       903
    x[1]      c11       625
    x[1]      c1        556
    x[1]      OBJ       -728
    x[2]      c2        329
    x[2]      c3        459
    x[2]      c4        260
    x[2]      c5        915
    x[2]      c6        567
    x[2]      c7        215
    x[2]      c8        898
    x[2]      c9        253
    x[2]      c10       24
    x[2]      c11       414
    x[2]      c1        736
    x[2]      OBJ       -468
    x[3]      c2        827
    x[3]      c3        939
    x[3]      c4        432
    x[3]      c5        64
    x[3]      c6        899
    x[3]      c7        648
    x[3]      c8        130
    x[3]      c9        496
    x[3]      c10       950
    x[3]      c11       527
    x[3]      c1        301
    x[3]      OBJ       -1094
    x[4]      c2        739
    x[4]      c3        350
    x[4]      c4        20
    x[4]      c5        380
    x[4]      c6        772
    x[4]      c7        95
    x[4]      c8        414
    x[4]      c9        311
    x[4]      c10       431
    x[4]      c11       776
    x[4]      c1        111
    x[4]      OBJ       -961
    x[5]      c2        848
    x[5]      c3        219
    x[5]      c4        793
    x[5]      c5        170
    x[5]      c6        372
    x[5]      c7        747
    x[5]      c8        587
    x[5]      c9        320
    x[5]      c10       768
    x[5]      c11       158
    x[5]      c1        704
    x[5]      OBJ       -707
    x[6]      c2        742
    x[6]      c3        700
    x[6]      c4        172
    x[6]      c5        436
    x[6]      c6        809
    x[6]      c7        78
    x[6]      c8        352
    x[6]      c9        500
    x[6]      c10       876
    x[6]      c11       141
    x[6]      c1        408
    x[6]      OBJ       -971
    x[7]      c2        101
    x[7]      c3        520
    x[7]      c4        68
    x[7]      c5        156
    x[7]      c6        473
    x[7]      c7        952
    x[7]      c8        426
    x[7]      c9        469
    x[7]      c10       917
    x[7]      c11       489
    x[7]      c1        163
    x[7]      OBJ       -1170
    x[8]      c2        994
    x[8]      c3        466
    x[8]      c4        479
    x[8]      c5        630
    x[8]      c6        103
    x[8]      c7        898
    x[8]      c8        906
    x[8]      c9        762
    x[8]      c10       411
    x[8]      c11       322
    x[8]      c1        315
    x[8]      OBJ       -1054
    x[9]      c2        385
    x[9]      c3        184
    x[9]      c4        34
    x[9]      c5        273
    x[9]      c6        123
    x[9]      c7        191
    x[9]      c8        127
    x[9]      c9        946
    x[9]      c10       405
    x[9]      c11       814
    x[9]      c1        670
    x[9]      OBJ       -682
    x[10]     c2        650
    x[10]     c3        291
    x[10]     c4        494
    x[10]     c5        398
    x[10]     c6        949
    x[10]     c7        573
    x[10]     c8        177
    x[10]     c9        458
    x[10]     c10       825
    x[10]     c11       881
    x[10]     c1        457
    x[10]     OBJ       -709
    x[11]     c2        381
    x[11]     c3        806
    x[11]     c4        160
    x[11]     c5        687
    x[11]     c6        775
    x[11]     c7        94
    x[11]     c8        202
    x[11]     c9        699
    x[11]     c10       536
    x[11]     c11       777
    x[11]     c1        357
    x[11]     OBJ       -1125
    x[12]     c2        968
    x[12]     c3        242
    x[12]     c4        823
    x[12]     c5        517
    x[12]     c6        658
    x[12]     c7        752
    x[12]     c8        936
    x[12]     c9        511
    x[12]     c10       922
    x[12]     c11       833
    x[12]     c1        916
    x[12]     OBJ       -760
    x[13]     c2        982
    x[13]     c3        155
    x[13]     c4        236
    x[13]     c5        547
    x[13]     c6        142
    x[13]     c7        862
    x[13]     c8        613
    x[13]     c9        537
    x[13]     c10       852
    x[13]     c11       952
    x[13]     c1        614
    x[13]     OBJ       -957
    x[14]     c2        632
    x[14]     c3        437
    x[14]     c4        775
    x[14]     c5        159
    x[14]     c6        644
    x[14]     c7        463
    x[14]     c8        471
    x[14]     c9        925
    x[14]     c10       639
    x[14]     c11       492
    x[14]     c1        60
    x[14]     OBJ       -1154
    x[15]     c2        521
    x[15]     c3        847
    x[15]     c4        410
    x[15]     c5        622
    x[15]     c6        614
    x[15]     c7        302
    x[15]     c8        19
    x[15]     c9        435
    x[15]     c10       269
    x[15]     c11       887
    x[15]     c1        373
    x[15]     OBJ       -1020
    x[16]     c2        268
    x[16]     c3        910
    x[16]     c4        392
    x[16]     c5        623
    x[16]     c6        98
    x[16]     c7        896
    x[16]     c8        92
    x[16]     c9        426
    x[16]     c10       728
    x[16]     c11       700
    x[16]     c1        182
    x[16]     OBJ       -1239
    x[17]     c2        904
    x[17]     c3        821
    x[17]     c4        412
    x[17]     c5        929
    x[17]     c6        515
    x[17]     c7        66
    x[17]     c8        490
    x[17]     c9        586
    x[17]     c10       84
    x[17]     c11       147
    x[17]     c1        129
    x[17]     OBJ       -1000
    x[18]     c2        441
    x[18]     c3        828
    x[18]     c4        603
    x[18]     c5        996
    x[18]     c6        550
    x[18]     c7        933
    x[18]     c8        968
    x[18]     c9        987
    x[18]     c10       220
    x[18]     c11       223
    x[18]     c1        767
    x[18]     OBJ       -509
    x[19]     c2        487
    x[19]     c3        715
    x[19]     c4        549
    x[19]     c5        441
    x[19]     c6        647
    x[19]     c7        132
    x[19]     c8        234
    x[19]     c9        103
    x[19]     c10       359
    x[19]     c11       586
    x[19]     c1        896
    x[19]     OBJ       -267
    x[20]     c2        740
    x[20]     c3        225
    x[20]     c4        848
    x[20]     c5        399
    x[20]     c6        410
    x[20]     c7        915
    x[20]     c8        659
    x[20]     c9        471
    x[20]     c10       58
    x[20]     c11       988
    x[20]     c1        178
    x[20]     OBJ       -1091
    x[21]     c2        964
    x[21]     c3        566
    x[21]     c4        416
    x[21]     c5        302
    x[21]     c6        904
    x[21]     c7        119
    x[21]     c8        696
    x[21]     c9        194
    x[21]     c10       232
    x[21]     c11       134
    x[21]     c1        975
    x[21]     OBJ       -96
    x[22]     c2        917
    x[22]     c3        499
    x[22]     c4        999
    x[22]     c5        950
    x[22]     c6        723
    x[22]     c7        570
    x[22]     c8        429
    x[22]     c9        89
    x[22]     c10       448
    x[22]     c11       164
    x[22]     c1        226
    x[22]     OBJ       -1263
    x[23]     c2        480
    x[23]     c3        341
    x[23]     c4        751
    x[23]     c5        687
    x[23]     c6        711
    x[23]     c7        550
    x[23]     c8        793
    x[23]     c9        842
    x[23]     c10       743
    x[23]     c11       106
    x[23]     c1        404
    x[23]     OBJ       -1221
    x[24]     c2        791
    x[24]     c3        982
    x[24]     c4        855
    x[24]     c5        143
    x[24]     c6        412
    x[24]     c7        573
    x[24]     c8        69
    x[24]     c9        813
    x[24]     c10       213
    x[24]     c11       282
    x[24]     c1        833
    x[24]     OBJ       -589
    x[25]     c2        544
    x[25]     c3        539
    x[25]     c4        592
    x[25]     c5        568
    x[25]     c6        969
    x[25]     c7        933
    x[25]     c8        275
    x[25]     c9        850
    x[25]     c10       989
    x[25]     c11       923
    x[25]     c1        575
    x[25]     OBJ       -729
    x[26]     c2        845
    x[26]     c3        883
    x[26]     c4        423
    x[26]     c5        424
    x[26]     c6        594
    x[26]     c7        173
    x[26]     c8        875
    x[26]     c9        212
    x[26]     c10       928
    x[26]     c11       608
    x[26]     c1        340
    x[26]     OBJ       -872
    x[27]     c2        276
    x[27]     c3        761
    x[27]     c4        61
    x[27]     c5        770
    x[27]     c6        726
    x[27]     c7        962
    x[27]     c8        424
    x[27]     c9        201
    x[27]     c10       368
    x[27]     c11       258
    x[27]     c1        321
    x[27]     OBJ       -782
    x[28]     c2        32
    x[28]     c3        411
    x[28]     c4        46
    x[28]     c5        294
    x[28]     c6        711
    x[28]     c7        578
    x[28]     c8        143
    x[28]     c9        915
    x[28]     c10       466
    x[28]     c11       843
    x[28]     c1        580
    x[28]     OBJ       -837
    x[29]     c2        537
    x[29]     c3        210
    x[29]     c4        570
    x[29]     c5        39
    x[29]     c6        354
    x[29]     c7        78
    x[29]     c8        482
    x[29]     c9        437
    x[29]     c10       813
    x[29]     c11       734
    x[29]     c1        425
    x[29]     OBJ       -635
    x[30]     c2        818
    x[30]     c3        48
    x[30]     c4        790
    x[30]     c5        690
    x[30]     c6        827
    x[30]     c7        906
    x[30]     c8        788
    x[30]     c9        248
    x[30]     c10       636
    x[30]     c11       878
    x[30]     c1        955
    x[30]     OBJ       -558
    x[31]     c2        869
    x[31]     c3        441
    x[31]     c4        975
    x[31]     c5        370
    x[31]     c6        115
    x[31]     c7        455
    x[31]     c8        648
    x[31]     c9        262
    x[31]     c10       387
    x[31]     c11       961
    x[31]     c1        739
    x[31]     OBJ       -800
    x[32]     c2        451
    x[32]     c3        504
    x[32]     c4        481
    x[32]     c5        441
    x[32]     c6        495
    x[32]     c7        280
    x[32]     c8        207
    x[32]     c9        878
    x[32]     c10       923
    x[32]     c11       34
    x[32]     c1        473
    x[32]     OBJ       -712
    x[33]     c2        201
    x[33]     c3        726
    x[33]     c4        18
    x[33]     c5        391
    x[33]     c6        276
    x[33]     c7        375
    x[33]     c8        174
    x[33]     c9        930
    x[33]     c10       553
    x[33]     c11       161
    x[33]     c1        946
    x[33]     OBJ       -43
    x[34]     c2        923
    x[34]     c3        667
    x[34]     c4        824
    x[34]     c5        935
    x[34]     c6        294
    x[34]     c7        152
    x[34]     c8        259
    x[34]     c9        201
    x[34]     c10       25
    x[34]     c11       221
    x[34]     c1        666
    x[34]     OBJ       -575
    x[35]     c2        300
    x[35]     c3        636
    x[35]     c4        354
    x[35]     c5        866
    x[35]     c6        553
    x[35]     c7        581
    x[35]     c8        189
    x[35]     c9        545
    x[35]     c10       208
    x[35]     c11       245
    x[35]     c1        630
    x[35]     OBJ       -800
    x[36]     c2        420
    x[36]     c3        870
    x[36]     c4        28
    x[36]     c5        523
    x[36]     c6        815
    x[36]     c7        480
    x[36]     c8        551
    x[36]     c9        78
    x[36]     c10       10
    x[36]     c11       632
    x[36]     c1        462
    x[36]     OBJ       -630
    x[37]     c2        155
    x[37]     c3        818
    x[37]     c4        475
    x[37]     c5        461
    x[37]     c6        922
    x[37]     c7        119
    x[37]     c8        60
    x[37]     c9        778
    x[37]     c10       16
    x[37]     c11       837
    x[37]     c1        841
    x[37]     OBJ       -516
    x[38]     c2        912
    x[38]     c3        982
    x[38]     c4        905
    x[38]     c5        935
    x[38]     c6        448
    x[38]     c7        40
    x[38]     c8        457
    x[38]     c9        237
    x[38]     c10       749
    x[38]     c11       596
    x[38]     c1        2
    x[38]     OBJ       -1370
    x[39]     c2        412
    x[39]     c3        46
    x[39]     c4        249
    x[39]     c5        596
    x[39]     c6        447
    x[39]     c7        811
    x[39]     c8        97
    x[39]     c9        629
    x[39]     c10       175
    x[39]     c11       710
    x[39]     c1        778
    x[39]     OBJ       -626
    x[40]     c2        564
    x[40]     c3        791
    x[40]     c4        878
    x[40]     c5        468
    x[40]     c6        335
    x[40]     c7        340
    x[40]     c8        869
    x[40]     c9        564
    x[40]     c10       717
    x[40]     c11       134
    x[40]     c1        714
    x[40]     OBJ       -542
    x[41]     c2        503
    x[41]     c3        648
    x[41]     c4        985
    x[41]     c5        747
    x[41]     c6        881
    x[41]     c7        593
    x[41]     c8        154
    x[41]     c9        489
    x[41]     c10       323
    x[41]     c11       560
    x[41]     c1        855
    x[41]     OBJ       -402
    x[42]     c2        698
    x[42]     c3        617
    x[42]     c4        508
    x[42]     c5        452
    x[42]     c6        760
    x[42]     c7        418
    x[42]     c8        442
    x[42]     c9        734
    x[42]     c10       895
    x[42]     c11       483
    x[42]     c1        768
    x[42]     OBJ       -465
    x[43]     c2        79
    x[43]     c3        406
    x[43]     c4        426
    x[43]     c5        38
    x[43]     c6        594
    x[43]     c7        829
    x[43]     c8        280
    x[43]     c9        83
    x[43]     c10       481
    x[43]     c11       235
    x[43]     c1        141
    x[43]     OBJ       -809
    x[44]     c2        179
    x[44]     c3        753
    x[44]     c4        552
    x[44]     c5        811
    x[44]     c6        997
    x[44]     c7        831
    x[44]     c8        161
    x[44]     c9        932
    x[44]     c10       739
    x[44]     c11       279
    x[44]     c1        847
    x[44]     OBJ       -612
    x[45]     c2        19
    x[45]     c3        815
    x[45]     c4        386
    x[45]     c5        988
    x[45]     c6        458
    x[45]     c7        41
    x[45]     c8        548
    x[45]     c9        677
    x[45]     c10       508
    x[45]     c11       289
    x[45]     c1        325
    x[45]     OBJ       -931
    x[46]     c2        583
    x[46]     c3        15
    x[46]     c4        107
    x[46]     c5        372
    x[46]     c6        806
    x[46]     c7        423
    x[46]     c8        710
    x[46]     c9        361
    x[46]     c10       450
    x[46]     c11       146
    x[46]     c1        765
    x[46]     OBJ       -380
    x[47]     c2        899
    x[47]     c3        450
    x[47]     c4        794
    x[47]     c5        425
    x[47]     c6        867
    x[47]     c7        713
    x[47]     c8        432
    x[47]     c9        952
    x[47]     c10       402
    x[47]     c11       520
    x[47]     c1        10
    x[47]     OBJ       -1588
    x[48]     c2        780
    x[48]     c3        202
    x[48]     c4        996
    x[48]     c5        99
    x[48]     c6        941
    x[48]     c7        88
    x[48]     c8        555
    x[48]     c9        977
    x[48]     c10       622
    x[48]     c11       446
    x[48]     c1        162
    x[48]     OBJ       -1245
    x[49]     c2        680
    x[49]     c3        606
    x[49]     c4        959
    x[49]     c5        654
    x[49]     c6        326
    x[49]     c7        696
    x[49]     c8        660
    x[49]     c9        607
    x[49]     c10       825
    x[49]     c11       357
    x[49]     c1        208
    x[49]     OBJ       -1196
    x[50]     c2        702
    x[50]     c3        295
    x[50]     c4        378
    x[50]     c5        739
    x[50]     c6        142
    x[50]     c7        615
    x[50]     c8        897
    x[50]     c9        279
    x[50]     c10       942
    x[50]     c11       870
    x[50]     c1        981
    x[50]     OBJ       -652
    x[51]     c2        573
    x[51]     c3        35
    x[51]     c4        296
    x[51]     c5        757
    x[51]     c6        745
    x[51]     c7        494
    x[51]     c8        108
    x[51]     c9        319
    x[51]     c10       435
    x[51]     c11       994
    x[51]     c1        638
    x[51]     OBJ       -522
    x[52]     c2        451
    x[52]     c3        651
    x[52]     c4        582
    x[52]     c5        687
    x[52]     c6        529
    x[52]     c7        308
    x[52]     c8        551
    x[52]     c9        789
    x[52]     c10       678
    x[52]     c11       979
    x[52]     c1        184
    x[52]     OBJ       -1132
    x[53]     c2        320
    x[53]     c3        467
    x[53]     c4        254
    x[53]     c5        282
    x[53]     c6        46
    x[53]     c7        719
    x[53]     c8        514
    x[53]     c9        412
    x[53]     c10       285
    x[53]     c11       167
    x[53]     c1        124
    x[53]     OBJ       -882
    x[54]     c2        63
    x[54]     c3        531
    x[54]     c4        274
    x[54]     c5        950
    x[54]     c6        783
    x[54]     c7        120
    x[54]     c8        930
    x[54]     c9        470
    x[54]     c10       180
    x[54]     c11       758
    x[54]     c1        910
    x[54]     OBJ       -254
    x[55]     c2        194
    x[55]     c3        160
    x[55]     c4        154
    x[55]     c5        455
    x[55]     c6        725
    x[55]     c7        963
    x[55]     c8        516
    x[55]     c9        551
    x[55]     c10       520
    x[55]     c11       56
    x[55]     c1        332
    x[55]     OBJ       -711
    x[56]     c2        511
    x[56]     c3        204
    x[56]     c4        299
    x[56]     c5        261
    x[56]     c6        191
    x[56]     c7        294
    x[56]     c8        819
    x[56]     c9        253
    x[56]     c10       106
    x[56]     c11       660
    x[56]     c1        634
    x[56]     OBJ       -367
    x[57]     c2        640
    x[57]     c3        170
    x[57]     c4        637
    x[57]     c5        709
    x[57]     c6        527
    x[57]     c7        189
    x[57]     c8        937
    x[57]     c9        114
    x[57]     c10       345
    x[57]     c11       89
    x[57]     c1        555
    x[57]     OBJ       -609
    x[58]     c2        672
    x[58]     c3        331
    x[58]     c4        446
    x[58]     c5        487
    x[58]     c6        735
    x[58]     c7        299
    x[58]     c8        348
    x[58]     c9        511
    x[58]     c10       973
    x[58]     c11       161
    x[58]     c1        55
    x[58]     OBJ       -1020
    x[59]     c2        463
    x[59]     c3        595
    x[59]     c4        419
    x[59]     c5        925
    x[59]     c6        799
    x[59]     c7        168
    x[59]     c8        127
    x[59]     c9        619
    x[59]     c10       398
    x[59]     c11       402
    x[59]     c1        396
    x[59]     OBJ       -824
    x[60]     c2        624
    x[60]     c3        683
    x[60]     c4        651
    x[60]     c5        643
    x[60]     c6        93
    x[60]     c7        728
    x[60]     c8        458
    x[60]     c9        806
    x[60]     c10       581
    x[60]     c11       597
    x[60]     c1        23
    x[60]     OBJ       -1391
    x[61]     c2        618
    x[61]     c3        343
    x[61]     c4        711
    x[61]     c5        676
    x[61]     c6        968
    x[61]     c7        209
    x[61]     c8        302
    x[61]     c9        619
    x[61]     c10       445
    x[61]     c11       685
    x[61]     c1        171
    x[61]     OBJ       -958
    x[62]     c2        534
    x[62]     c3        480
    x[62]     c4        399
    x[62]     c5        996
    x[62]     c6        450
    x[62]     c7        974
    x[62]     c8        894
    x[62]     c9        54
    x[62]     c10       961
    x[62]     c11       742
    x[62]     c1        310
    x[62]     OBJ       -1035
    x[63]     c2        798
    x[63]     c3        477
    x[63]     c4        79
    x[63]     c5        855
    x[63]     c6        563
    x[63]     c7        912
    x[63]     c8        228
    x[63]     c9        180
    x[63]     c10       722
    x[63]     c11       990
    x[63]     c1        181
    x[63]     OBJ       -1251
    x[64]     c2        255
    x[64]     c3        660
    x[64]     c4        81
    x[64]     c5        269
    x[64]     c6        813
    x[64]     c7        942
    x[64]     c8        992
    x[64]     c9        699
    x[64]     c10       481
    x[64]     c11       968
    x[64]     c1        378
    x[64]     OBJ       -1118
    x[65]     c2        39
    x[65]     c3        74
    x[65]     c4        446
    x[65]     c5        186
    x[65]     c6        260
    x[65]     c7        71
    x[65]     c8        582
    x[65]     c9        116
    x[65]     c10       448
    x[65]     c11       498
    x[65]     c1        600
    x[65]     OBJ       -666
    x[66]     c2        522
    x[66]     c3        359
    x[66]     c4        176
    x[66]     c5        846
    x[66]     c6        766
    x[66]     c7        225
    x[66]     c8        602
    x[66]     c9        636
    x[66]     c10       632
    x[66]     c11       840
    x[66]     c1        742
    x[66]     OBJ       -724
    x[67]     c2        733
    x[67]     c3        514
    x[67]     c4        939
    x[67]     c5        870
    x[67]     c6        459
    x[67]     c7        929
    x[67]     c8        739
    x[67]     c9        247
    x[67]     c10       138
    x[67]     c11       102
    x[67]     c1        275
    x[67]     OBJ       -1213
    x[68]     c2        144
    x[68]     c3        432
    x[68]     c4        893
    x[68]     c5        505
    x[68]     c6        176
    x[68]     c7        783
    x[68]     c8        460
    x[68]     c9        769
    x[68]     c10       599
    x[68]     c11       835
    x[68]     c1        601
    x[68]     OBJ       -673
    x[69]     c2        662
    x[69]     c3        108
    x[69]     c4        556
    x[69]     c5        809
    x[69]     c6        21
    x[69]     c7        978
    x[69]     c8        631
    x[69]     c9        666
    x[69]     c10       848
    x[69]     c11       703
    x[69]     c1        951
    x[69]     OBJ       -581
    x[70]     c2        143
    x[70]     c3        563
    x[70]     c4        121
    x[70]     c5        690
    x[70]     c6        335
    x[70]     c7        609
    x[70]     c8        256
    x[70]     c9        820
    x[70]     c10       851
    x[70]     c11       200
    x[70]     c1        731
    x[70]     OBJ       -447
    x[71]     c2        205
    x[71]     c3        820
    x[71]     c4        135
    x[71]     c5        281
    x[71]     c6        188
    x[71]     c7        673
    x[71]     c8        894
    x[71]     c9        765
    x[71]     c10       741
    x[71]     c11       395
    x[71]     c1        166
    x[71]     OBJ       -1365
    x[72]     c2        64
    x[72]     c3        237
    x[72]     c4        821
    x[72]     c5        993
    x[72]     c6        276
    x[72]     c7        835
    x[72]     c8        516
    x[72]     c9        376
    x[72]     c10       138
    x[72]     c11       620
    x[72]     c1        659
    x[72]     OBJ       -692
    x[73]     c2        319
    x[73]     c3        93
    x[73]     c4        33
    x[73]     c5        289
    x[73]     c6        775
    x[73]     c7        821
    x[73]     c8        138
    x[73]     c9        665
    x[73]     c10       715
    x[73]     c11       937
    x[73]     c1        15
    x[73]     OBJ       -1364
    x[74]     c2        765
    x[74]     c3        73
    x[74]     c4        36
    x[74]     c5        458
    x[74]     c6        12
    x[74]     c7        62
    x[74]     c8        304
    x[74]     c9        15
    x[74]     c10       520
    x[74]     c11       385
    x[74]     c1        230
    x[74]     OBJ       -790
    x[75]     c2        64
    x[75]     c3        824
    x[75]     c4        921
    x[75]     c5        580
    x[75]     c6        80
    x[75]     c7        464
    x[75]     c8        558
    x[75]     c9        782
    x[75]     c10       714
    x[75]     c11       743
    x[75]     c1        577
    x[75]     OBJ       -576
    x[76]     c2        94
    x[76]     c3        912
    x[76]     c4        352
    x[76]     c5        310
    x[76]     c6        221
    x[76]     c7        987
    x[76]     c8        644
    x[76]     c9        866
    x[76]     c10       78
    x[76]     c11       124
    x[76]     c1        807
    x[76]     OBJ       -642
    x[77]     c2        351
    x[77]     c3        260
    x[77]     c4        851
    x[77]     c5        92
    x[77]     c6        591
    x[77]     c7        122
    x[77]     c8        427
    x[77]     c9        923
    x[77]     c10       466
    x[77]     c11       356
    x[77]     c1        420
    x[77]     OBJ       -841
    x[78]     c2        672
    x[78]     c3        338
    x[78]     c4        224
    x[78]     c5        601
    x[78]     c6        694
    x[78]     c7        405
    x[78]     c8        786
    x[78]     c9        271
    x[78]     c10       176
    x[78]     c11       137
    x[78]     c1        862
    x[78]     OBJ       -501
    x[79]     c2        744
    x[79]     c3        419
    x[79]     c4        329
    x[79]     c5        783
    x[79]     c6        406
    x[79]     c7        238
    x[79]     c8        936
    x[79]     c9        37
    x[79]     c10       401
    x[79]     c11       598
    x[79]     c1        974
    x[79]     OBJ       -377
    x[80]     c2        443
    x[80]     c3        269
    x[80]     c4        702
    x[80]     c5        308
    x[80]     c6        957
    x[80]     c7        874
    x[80]     c8        100
    x[80]     c9        145
    x[80]     c10       68
    x[80]     c11       406
    x[80]     c1        991
    x[80]     OBJ       -447
    x[81]     c2        577
    x[81]     c3        219
    x[81]     c4        810
    x[81]     c5        453
    x[81]     c6        327
    x[81]     c7        846
    x[81]     c8        449
    x[81]     c9        867
    x[81]     c10       840
    x[81]     c11       243
    x[81]     c1        795
    x[81]     OBJ       -721
    x[82]     c2        917
    x[82]     c3        739
    x[82]     c4        417
    x[82]     c5        496
    x[82]     c6        692
    x[82]     c7        325
    x[82]     c8        893
    x[82]     c9        926
    x[82]     c10       128
    x[82]     c11       308
    x[82]     c1        938
    x[82]     OBJ       -256
    x[83]     c2        847
    x[83]     c3        539
    x[83]     c4        942
    x[83]     c5        279
    x[83]     c6        323
    x[83]     c7        331
    x[83]     c8        516
    x[83]     c9        57
    x[83]     c10       98
    x[83]     c11       506
    x[83]     c1        792
    x[83]     OBJ       -464
    x[84]     c2        657
    x[84]     c3        707
    x[84]     c4        680
    x[84]     c5        410
    x[84]     c6        363
    x[84]     c7        287
    x[84]     c8        708
    x[84]     c9        978
    x[84]     c10       498
    x[84]     c11       679
    x[84]     c1        647
    x[84]     OBJ       -823
    x[85]     c2        280
    x[85]     c3        960
    x[85]     c4        687
    x[85]     c5        388
    x[85]     c6        244
    x[85]     c7        867
    x[85]     c8        3
    x[85]     c9        95
    x[85]     c10       150
    x[85]     c11       456
    x[85]     c1        59
    x[85]     OBJ       -1198
    x[86]     c2        433
    x[86]     c3        588
    x[86]     c4        444
    x[86]     c5        51
    x[86]     c6        424
    x[86]     c7        842
    x[86]     c8        585
    x[86]     c9        189
    x[86]     c10       258
    x[86]     c11       752
    x[86]     c1        991
    x[86]     OBJ       -326
    x[87]     c2        730
    x[87]     c3        141
    x[87]     c4        523
    x[87]     c5        527
    x[87]     c6        671
    x[87]     c7        336
    x[87]     c8        489
    x[87]     c9        913
    x[87]     c10       441
    x[87]     c11       921
    x[87]     c1        759
    x[87]     OBJ       -741
    x[88]     c2        861
    x[88]     c3        976
    x[88]     c4        307
    x[88]     c5        998
    x[88]     c6        460
    x[88]     c7        944
    x[88]     c8        393
    x[88]     c9        660
    x[88]     c10       52
    x[88]     c11       955
    x[88]     c1        627
    x[88]     OBJ       -828
    x[89]     c2        31
    x[89]     c3        180
    x[89]     c4        159
    x[89]     c5        11
    x[89]     c6        905
    x[89]     c7        347
    x[89]     c8        601
    x[89]     c9        823
    x[89]     c10       100
    x[89]     c11       954
    x[89]     c1        328
    x[89]     OBJ       -947
    x[90]     c2        490
    x[90]     c3        146
    x[90]     c4        923
    x[90]     c5        275
    x[90]     c6        662
    x[90]     c7        971
    x[90]     c8        6
    x[90]     c9        371
    x[90]     c10       144
    x[90]     c11       657
    x[90]     c1        902
    x[90]     OBJ       -205
    x[91]     c2        765
    x[91]     c3        994
    x[91]     c4        593
    x[91]     c5        308
    x[91]     c6        175
    x[91]     c7        656
    x[91]     c8        2
    x[91]     c9        293
    x[91]     c10       311
    x[91]     c11       455
    x[91]     c1        629
    x[91]     OBJ       -623
    x[92]     c2        732
    x[92]     c3        583
    x[92]     c4        796
    x[92]     c5        555
    x[92]     c6        157
    x[92]     c7        358
    x[92]     c8        828
    x[92]     c9        31
    x[92]     c10       77
    x[92]     c11       660
    x[92]     c1        510
    x[92]     OBJ       -713
    x[93]     c2        357
    x[93]     c3        417
    x[93]     c4        843
    x[93]     c5        53
    x[93]     c6        907
    x[93]     c7        293
    x[93]     c8        694
    x[93]     c9        761
    x[93]     c10       415
    x[93]     c11       233
    x[93]     c1        103
    x[93]     OBJ       -1273
    x[94]     c2        218
    x[94]     c3        764
    x[94]     c4        5
    x[94]     c5        145
    x[94]     c6        602
    x[94]     c7        52
    x[94]     c8        369
    x[94]     c9        83
    x[94]     c10       134
    x[94]     c11       962
    x[94]     c1        788
    x[94]     OBJ       -379
    x[95]     c2        661
    x[95]     c3        529
    x[95]     c4        11
    x[95]     c5        211
    x[95]     c6        398
    x[95]     c7        517
    x[95]     c8        246
    x[95]     c9        941
    x[95]     c10       271
    x[95]     c11       267
    x[95]     c1        73
    x[95]     OBJ       -1067
    x[96]     c2        687
    x[96]     c3        364
    x[96]     c4        250
    x[96]     c5        9
    x[96]     c6        899
    x[96]     c7        763
    x[96]     c8        23
    x[96]     c9        452
    x[96]     c10       228
    x[96]     c11       89
    x[96]     c1        379
    x[96]     OBJ       -869
    x[97]     c2        626
    x[97]     c3        510
    x[97]     c4        181
    x[97]     c5        299
    x[97]     c6        28
    x[97]     c7        498
    x[97]     c8        854
    x[97]     c9        543
    x[97]     c10       261
    x[97]     c11       595
    x[97]     c1        573
    x[97]     OBJ       -664
    x[98]     c2        46
    x[98]     c3        680
    x[98]     c4        635
    x[98]     c5        399
    x[98]     c6        47
    x[98]     c7        298
    x[98]     c8        849
    x[98]     c9        413
    x[98]     c10       125
    x[98]     c11       392
    x[98]     c1        783
    x[98]     OBJ       -520
    x[99]     c2        607
    x[99]     c3        122
    x[99]     c4        651
    x[99]     c5        667
    x[99]     c6        179
    x[99]     c7        205
    x[99]     c8        547
    x[99]     c9        306
    x[99]     c10       757
    x[99]     c11       35
    x[99]     c1        310
    x[99]     OBJ       -919
    x[100]    c2        902
    x[100]    c3        971
    x[100]    c4        758
    x[100]    c5        248
    x[100]    c6        585
    x[100]    c7        180
    x[100]    c8        335
    x[100]    c9        928
    x[100]    c10       127
    x[100]    c11       567
    x[100]    c1        38
    x[100]    OBJ       -1382
RHS
    rhs       c2        26525
    rhs       c3        25120
    rhs       c4        24280
    rhs       c5        25265
    rhs       c6        26205
    rhs       c7        25477
    rhs       c8        23982
    rhs       c9        25695
    rhs       c10       23511
    rhs       c11       26096
    rhs       c1        2567
RANGES
BOUNDS
 LO bounds    ss[1]     0
 PL bounds    ss[1]
 MI bounds    s[1]
 UP bounds    s[1]      0
 MI bounds    s[2]
 UP bounds    s[2]      0
 MI bounds    s[3]
 UP bounds    s[3]      0
 MI bounds    s[4]
 UP bounds    s[4]      0
 MI bounds    s[5]
 UP bounds    s[5]      0
 MI bounds    s[6]
 UP bounds    s[6]      0
 MI bounds    s[7]
 UP bounds    s[7]      0
 MI bounds    s[8]
 UP bounds    s[8]      0
 MI bounds    s[9]
 UP bounds    s[9]      0
 MI bounds    s[10]
 UP bounds    s[10]     0
 BV bounds    x[1]
 BV bounds    x[2]
 BV bounds    x[3]
 BV bounds    x[4]
 BV bounds    x[5]
 BV bounds    x[6]
 BV bounds    x[7]
 BV bounds    x[8]
 BV bounds    x[9]
 BV bounds    x[10]
 BV bounds    x[11]
 BV bounds    x[12]
 BV bounds    x[13]
 BV bounds    x[14]
 BV bounds    x[15]
 BV bounds    x[16]
 BV bounds    x[17]
 BV bounds    x[18]
 BV bounds    x[19]
 BV bounds    x[20]
 BV bounds    x[21]
 BV bounds    x[22]
 BV bounds    x[23]
 BV bounds    x[24]
 BV bounds    x[25]
 BV bounds    x[26]
 BV bounds    x[27]
 BV bounds    x[28]
 BV bounds    x[29]
 BV bounds    x[30]
 BV bounds    x[31]
 BV bounds    x[32]
 BV bounds    x[33]
 BV bounds    x[34]
 BV bounds    x[35]
 BV bounds    x[36]
 BV bounds    x[37]
 BV bounds    x[38]
 BV bounds    x[39]
 BV bounds    x[40]
 BV bounds    x[41]
 BV bounds    x[42]
 BV bounds    x[43]
 BV bounds    x[44]
 BV bounds    x[45]
 BV bounds    x[46]
 BV bounds    x[47]
 BV bounds    x[48]
 BV bounds    x[49]
 BV bounds    x[50]
 BV bounds    x[51]
 BV bounds    x[52]
 BV bounds    x[53]
 BV bounds    x[54]
 BV bounds    x[55]
 BV bounds    x[56]
 BV bounds    x[57]
 BV bounds    x[58]
 BV bounds    x[59]
 BV bounds    x[60]
 BV bounds    x[61]
 BV bounds    x[62]
 BV bounds    x[63]
 BV bounds    x[64]
 BV bounds    x[65]
 BV bounds    x[66]
 BV bounds    x[67]
 BV bounds    x[68]
 BV bounds    x[69]
 BV bounds    x[70]
 BV bounds    x[71]
 BV bounds    x[72]
 BV bounds    x[73]
 BV bounds    x[74]
 BV bounds    x[75]
 BV bounds    x[76]
 BV bounds    x[77]
 BV bounds    x[78]
 BV bounds    x[79]
 BV bounds    x[80]
 BV bounds    x[81]
 BV bounds    x[82]
 BV bounds    x[83]
 BV bounds    x[84]
 BV bounds    x[85]
 BV bounds    x[86]
 BV bounds    x[87]
 BV bounds    x[88]
 BV bounds    x[89]
 BV bounds    x[90]
 BV bounds    x[91]
 BV bounds    x[92]
 BV bounds    x[93]
 BV bounds    x[94]
 BV bounds    x[95]
 BV bounds    x[96]
 BV bounds    x[97]
 BV bounds    x[98]
 BV bounds    x[99]
 BV bounds    x[100]
ENDATA
